outputs/case_353.model.txt
reserve_recorded_in_special_books = True
reserve_calculated_by_insurance_type = True
internal_control_executed = True
internal_handling_established = True
internal_handling_established_and_executed = True
internal_handling_executed = True
penalty = False
internal_control_established_and_executed = True
violation_144_145 = False
internal_control_established = True
compliance_144_1_to_4 = True
reserve_calculation_compliance = True